Problem:    
Rows:       256
Columns:    89 (72 integer, 72 binary)
Non-zeros:  960
Status:     INTEGER OPTIMAL
Objective:  value = 68.764523 (MINimum)

   No.   Row name        Activity     Lower bound   Upper bound
------ ------------    ------------- ------------- -------------
     1 r.5                   68.7645             0               
     2 r.6                  -981.242      -983.884               
     3 r.7                   1068.76             0               
     4 r.8                  -985.849      -988.491               
     5 r.9                   68.7645             0               
     6 r.10                  49.2983      -982.462               
     7 r.11                  1068.76             0               
     8 r.12                 -950.702      -988.164               
     9 r.13                  68.7645             0               
    10 r.14                  49.2983      -971.901               
    11 r.15                  1068.76             0               
    12 r.16                 -962.538       -981.43               
    13 r.17                  1068.76             0               
    14 r.18                 -982.238      -984.879               
    15 r.19                  68.7645             0               
    16 r.20                  20.7029      -989.546               
    17 r.21                  1068.76             0               
    18 r.22                 -967.365      -986.054               
    19 r.23                  68.7645             0               
    20 r.24                  34.0048      -989.146               
    21 r.25                  1068.76             0               
    22 r.26                  -998.75       -998.75               
    23 r.27                  68.7645             0               
    24 r.28                  5.35832      -991.973               
    25 r.29                  1068.76             0               
    26 r.30                 -931.235      -964.335               
    27 r.31                  68.7645             0               
    28 r.32                 -947.108      -980.207               
    29 r.33                  68.7645             0               
    30 r.34                  68.7645      -964.384               
    31 r.35                  1068.76             0               
    32 r.36                 -931.235      -980.534               
    33 r.37                        1             1             = 
    34 r.38                        1             1             = 
    35 r.39                        1             1             = 
    36 r.40                        1             1             = 
    37 r.41                        1             1             = 
    38 r.42                        1             1             = 
    39 r.43                        1             1             = 
    40 r.44                        1             1             = 
    41 r.45                     1000             2               
    42 r.46                    -1000         -1001               
    43 r.47                     3031      -982.462               
    44 r.48                        2             2               
    45 r.49                       -2         -1001               
    46 r.50                 -965.758      -988.164               
    47 r.51                     1000             2               
    48 r.52                    -1000         -1001               
    49 r.53                     3031      -971.901               
    50 r.54                        2             2               
    51 r.55                       -2         -1001               
    52 r.56                 -977.594       -981.43               
    53 r.57                     1001             2               
    54 r.58                    -1001         -1001               
    55 r.59                  2999.47      -984.879               
    56 r.60                     1001             2               
    57 r.61                    -1001         -1001               
    58 r.62                  2005.65      -989.546               
    59 r.63                     1001             2               
    60 r.64                    -1001         -1001               
    61 r.65                  3014.34      -986.054               
    62 r.66                     1001             2               
    63 r.67                    -1001         -1001               
    64 r.68                  2018.95      -989.146               
    65 r.69                 -983.884      -983.884               
    66 r.70                 -988.491      -988.491               
    67 r.71                 -983.884      -983.884               
    68 r.72                 -988.491      -988.491               
    69 r.73                  50.4702      -964.335               
    70 r.74                  34.5978      -980.207               
    71 r.75                 -946.292      -964.335               
    72 r.76                 -962.164      -980.207               
    73 r.77                     1000             2               
    74 r.78                    -1000         -1001               
    75 r.79                  3050.47      -964.384               
    76 r.80                        2             2               
    77 r.81                       -2         -1001               
    78 r.82                 -946.292      -980.534               
    79 r.83                     1000             2               
    80 r.84                    -1000         -1001               
    81 r.85                   969.46       16.1165               
    82 r.86                        2             2               
    83 r.87                       -2         -1001               
    84 r.88                  964.852        11.509               
    85 r.89                     1000             2               
    86 r.90                    -1000         -1001               
    87 r.91                     2000      -971.901               
    88 r.92                        2             2               
    89 r.93                       -2         -1001               
    90 r.94                 -11.8363       -981.43               
    91 r.95                     1001             2               
    92 r.96                    -1001         -1001               
    93 r.97                  1968.46      -984.879               
    94 r.98                     1001             2               
    95 r.99                    -1001         -1001               
    96 r.100                  1971.4      -989.546               
    97 r.101                    1001             2               
    98 r.102                   -1001         -1001               
    99 r.103                 1983.34      -986.054               
   100 r.104                    1001             2               
   101 r.105                   -1001         -1001               
   102 r.106                 1984.71      -989.146               
   103 r.107                 46.6566      -982.462               
   104 r.108                -953.343      -988.164               
   105 r.109                 46.6566      -982.462               
   106 r.110                -953.343      -988.164               
   107 r.111                    1001             2               
   108 r.112                   -1001         -1001               
   109 r.113                 2019.47      -964.335               
   110 r.114                    1001             2               
   111 r.115                   -1001         -1001               
   112 r.116                 1003.59      -980.207               
   113 r.117                 19.4662      -964.384               
   114 r.118                -980.534      -980.534               
   115 r.119                 19.4662      -964.384               
   116 r.120                -980.534      -980.534               
   117 r.121                    1000             2               
   118 r.122                   -1000         -1001               
   119 r.123                  969.46       16.1165               
   120 r.124                       2             2               
   121 r.125                      -2         -1001               
   122 r.126                 976.689        11.509               
   123 r.127                    1000             2               
   124 r.128                   -1000         -1001               
   125 r.129                    2000       17.5382               
   126 r.130                       2             2               
   127 r.131                      -2         -1001               
   128 r.132                 11.8363       11.8363               
   129 r.133                 30.6084      -971.901               
   130 r.134                -981.228       -981.43               
   131 r.135                 30.4065      -971.901               
   132 r.136                 -981.43       -981.43               
   133 r.137                    1001             2               
   134 r.138                   -1001         -1001               
   135 r.139                 1983.34      -986.054               
   136 r.140                    1001             2               
   137 r.141                   -1001         -1001               
   138 r.142                 1996.54      -989.146               
   139 r.143                 46.6566      -971.901               
   140 r.144                 -965.18       -981.43               
   141 r.145                 46.6566      -971.901               
   142 r.146                 -965.18       -981.43               
   143 r.147                    1001             2               
   144 r.148                   -1001         -1001               
   145 r.149                 2019.47      -964.335               
   146 r.150                    1001             2               
   147 r.151                   -1001         -1001               
   148 r.152                 1015.43      -980.207               
   149 r.153                 19.4662      -964.384               
   150 r.154                -980.534      -980.534               
   151 r.155                 31.3025      -964.384               
   152 r.156                -968.697      -980.534               
   153 r.157                    1001             2               
   154 r.158                   -1001         -1001               
   155 r.159                 1000.07       16.1165               
   156 r.160                    1001             2               
   157 r.161                   -1001         -1001               
   158 r.162                 1995.26        11.509               
   159 r.163                    1001             2               
   160 r.164                   -1001         -1001               
   161 r.165                 2030.61       17.5382               
   162 r.166                    1001             2               
   163 r.167                   -1001         -1001               
   164 r.168                 2030.41       11.8363               
   165 r.169                       2             2               
   166 r.170                      -2         -1001               
   167 r.171                -986.054      -986.054               
   168 r.172                    1000             2               
   169 r.173                   -1000         -1001               
   170 r.174                 2015.11      -989.146               
   171 r.175                -984.879      -984.879               
   172 r.176                 18.0613      -989.546               
   173 r.177                -984.879      -984.879               
   174 r.178                 18.0613      -989.546               
   175 r.179                       2             2               
   176 r.180                      -2         -1001               
   177 r.181                -949.925      -964.335               
   178 r.182                    1000             2               
   179 r.183                   -1000         -1001               
   180 r.184                    1034      -980.207               
   181 r.185                 50.0746      -964.384               
   182 r.186                -949.925      -980.534               
   183 r.187                 49.8727      -964.384               
   184 r.188                -950.127      -980.534               
   185 r.189                    1001             2               
   186 r.190                   -1001         -1001               
   187 r.191                 985.659       16.1165               
   188 r.192                    1001             2               
   189 r.193                   -1001         -1001               
   190 r.194                 1981.05        11.509               
   191 r.195                    1001             2               
   192 r.196                   -1001         -1001               
   193 r.197                  2016.2       17.5382               
   194 r.198                    1001             2               
   195 r.199                   -1001         -1001               
   196 r.200                  2016.2       11.8363               
   197 r.201                    1001             2               
   198 r.202                   -1001         -1001               
   199 r.203                  2016.2       28.0987               
   200 r.204                    1001             2               
   201 r.205                   -1001         -1001               
   202 r.206                 2004.36       18.5701               
   203 r.207                       2             2               
   204 r.208                      -2         -1001               
   205 r.209                 984.663       15.1206               
   206 r.210                    1000             2               
   207 r.211                   -1000         -1001               
   208 r.212                  1987.6       10.4541               
   209 r.213                -970.006      -986.054               
   210 r.214                 31.3631      -989.146               
   211 r.215                -970.006      -986.054               
   212 r.216                 31.3631      -989.146               
   213 r.217                -964.335      -964.335               
   214 r.218                -980.207      -980.207               
   215 r.219                -964.335      -964.335               
   216 r.220                -980.207      -980.207               
   217 r.221                 35.6653      -964.384               
   218 r.222                -964.335      -980.534               
   219 r.223                 35.6653      -964.384               
   220 r.224                -964.335      -980.534               
   221 r.225                    1001             2               
   222 r.226                   -1001         -1001               
   223 r.227                 1980.53       17.5382               
   224 r.228                    1001             2               
   225 r.229                   -1001         -1001               
   226 r.230                 2996.41       11.8363               
   227 r.231                    1001             2               
   228 r.232                   -1001         -1001               
   229 r.233                 1980.53       28.0987               
   230 r.234                    1001             2               
   231 r.235                   -1001         -1001               
   232 r.236                 2984.57       18.5701               
   233 r.237                       2             2               
   234 r.238                      -2         -1001               
   235 r.239                 948.998       15.1206               
   236 r.240                    1000             2               
   237 r.241                   -1000         -1001               
   238 r.242                 2967.81       10.4541               
   239 r.243                    1001             2               
   240 r.244                   -1001         -1001               
   241 r.245                    2000      -964.384               
   242 r.246                    1001             2               
   243 r.247                   -1001         -1001               
   244 r.248                 3015.87      -980.534               
   245 r.249                    1000             2               
   246 r.250                   -1000         -1001               
   247 r.251                 949.994       16.1165               
   248 r.252                       2             2               
   249 r.253                      -2         -1001               
   250 r.254                 945.386        11.509               
   251 r.255                    1001             2               
   252 r.256                   -1001         -1001               
   253 r.257                    2000       35.6653               
   254 r.258                    1001             2               
   255 r.259                   -1001         -1001               
   256 r.260                 984.128       19.7929               

   No. Column name       Activity     Lower bound   Upper bound
------ ------------    ------------- ------------- -------------
     1 tt                    68.7645             0               
     2 s_1_1        *              0             0             1 
     3 t_1_1                 1050.47             0               
     4 s_1_7        *              1             0             1 
     5 s_2_1        *              1             0             1 
     6 t_2_1                 53.7083             0               
     7 s_2_7        *              0             0             1 
     8 s_1_2        *              0             0             1 
     9 t_1_2                 19.4662             0               
    10 s_1_8        *              0             0             1 
    11 s_2_2        *              1             0             1 
    12 t_2_2                 19.4662             0               
    13 s_2_8        *              1             0             1 
    14 s_1_3        *              0             0             1 
    15 t_1_3                 19.4662             0               
    16 s_2_3        *              1             0             1 
    17 t_2_3                 31.3025             0               
    18 s_1_4        *              1             0             1 
    19 t_1_4                 50.0746             0               
    20 s_2_4        *              0             0             1 
    21 t_2_4                 49.8727             0               
    22 s_1_5        *              1             0             1 
    23 t_1_5                 35.6653             0               
    24 s_2_5        *              0             0             1 
    25 t_2_5                 35.6653             0               
    26 s_1_6        *              1             0             1 
    27 t_1_6                 66.1228             0               
    28 s_2_6        *              0             0             1 
    29 t_2_6                 66.1228             0               
    30 t_1_7                       0             0               
    31 t_2_7                 1015.87             0               
    32 t_1_8                       0             0               
    33 t_2_8                       0             0               
    34 r_1_1_2      *              1             0             1 
    35 u_1_1_2      *              0             0             1 
    36 r_2_1_2      *              0             0             1 
    37 u_2_1_2      *              1             0             1 
    38 r_1_1_3      *              1             0             1 
    39 u_1_1_3      *              0             0             1 
    40 r_2_1_3      *              0             0             1 
    41 u_2_1_3      *              1             0             1 
    42 r_1_1_4      *              1             0             1 
    43 u_1_1_4      *              0             0             1 
    44 r_2_1_4      *              1             0             1 
    45 u_2_1_4      *              0             0             1 
    46 r_1_1_5      *              1             0             1 
    47 u_1_1_5      *              0             0             1 
    48 r_2_1_5      *              1             0             1 
    49 u_2_1_5      *              0             0             1 
    50 r_1_1_8      *              1             0             1 
    51 u_1_1_8      *              0             0             1 
    52 r_2_1_8      *              0             0             1 
    53 u_2_1_8      *              1             0             1 
    54 r_1_2_3      *              1             0             1 
    55 u_1_2_3      *              0             0             1 
    56 r_2_2_3      *              0             0             1 
    57 u_2_2_3      *              0             0             1 
    58 r_1_2_4      *              1             0             1 
    59 u_1_2_4      *              0             0             1 
    60 r_2_2_4      *              1             0             1 
    61 u_2_2_4      *              0             0             1 
    62 r_1_2_5      *              1             0             1 
    63 u_1_2_5      *              0             0             1 
    64 r_2_2_5      *              1             0             1 
    65 u_2_2_5      *              0             0             1 
    66 r_1_2_7      *              1             0             1 
    67 u_1_2_7      *              0             0             1 
    68 r_2_2_7      *              1             0             1 
    69 u_2_2_7      *              0             0             1 
    70 r_1_3_5      *              1             0             1 
    71 u_1_3_5      *              0             0             1 
    72 r_2_3_5      *              1             0             1 
    73 u_2_3_5      *              0             0             1 
    74 r_1_3_7      *              1             0             1 
    75 u_1_3_7      *              0             0             1 
    76 r_2_3_7      *              1             0             1 
    77 u_2_3_7      *              0             0             1 
    78 r_1_4_5      *              0             0             1 
    79 u_1_4_5      *              1             0             1 
    80 r_2_4_5      *              1             0             1 
    81 u_2_4_5      *              0             0             1 
    82 r_1_4_7      *              0             0             1 
    83 u_1_4_7      *              1             0             1 
    84 r_2_4_7      *              1             0             1 
    85 u_2_4_7      *              0             0             1 
    86 r_1_7_8      *              1             0             1 
    87 u_1_7_8      *              0             0             1 
    88 r_2_7_8      *              1             0             1 
    89 u_2_7_8      *              0             0             1 

Integer feasibility conditions:

KKT.PE: max.abs.err = 4.55e-13 on row 43
        max.rel.err = 1.11e-16 on row 158
        High quality

KKT.PB: max.abs.err = 1.14e-13 on row 22
        max.rel.err = 1.16e-16 on row 132
        High quality

End of output
